7699 8743
2862 675
4976 1235
8335 1616
9964 9859
3665 3888
2188 6369
507 4162
5549 218
2671 1367
8393 1160
4445 253
7236 33
4749 8151
9972 1146
8213 1403
4538 8535
1642 6493
9526 5285
3522 586
1062 3886
6271 8128
1396 3856
4949 3953
3782 8527
9576 5209
8143 5798
8479 2101
3452 966
159 9259
6030 9169
8147 7168
4303 1388
2062 3744
5230 9417
2350 9495
4129 1928
3315 677
5094 9679
2805 1063
2226 1808
9422 12
6588 7467
8378 7106
2724 8012
9223 8513
6227 838
2993 1742
1913 5387
6270 9497
